qe/outputs/qe/qe_queries_cbrdelay/T=5,eliminate=[I_0,I_1,I_2,I_3,I_4,L_4,B].smt2
; benchmark generated from python API
(set-info :status unknown)
(declare-fun S_4 () Real)
(declare-fun S_3 () Real)
(declare-fun C () Real)
(declare-fun L_2 () Real)
(declare-fun A_2 () Real)
(declare-fun S_0 () Real)
(declare-fun S_2 () Real)
(declare-fun S_1 () Real)
(declare-fun A_0 () Real)
(declare-fun L_0 () Real)
(declare-fun L_3 () Real)
(declare-fun A_4 () Real)
(declare-fun A_1 () Real)
(declare-fun A_3 () Real)
(declare-fun L_1 () Real)
(assert
 (let (($x34 (>= L_0 0.0)))
 (let (($x126 (>= C 5.0)))
 (let ((?x1596 (* (- 1.0) A_2)))
 (let ((?x132 (* (- 1.0) L_0)))
 (let ((?x12960 (+ ?x132 A_1 C ?x1596 L_2)))
 (let (($x12966 (<= 0.0 ?x12960)))
 (let (($x13280 (not $x12966)))
 (let ((?x1549 (* 2.0 C)))
 (let ((?x9653 (+ ?x1549 ?x1596 L_2 S_0)))
 (let (($x9719 (<= 0.0 ?x9653)))
 (let (($x10036 (not $x9719)))
 (let (($x9960 (<= (+ ?x132 (* (- 1.0) S_4) C A_2) 0.0)))
 (let (($x4078 (<= (+ (* (- 1.0) L_2) A_3 (* (- 1.0) S_4)) 0.0)))
 (let ((?x113 (* (- 1.0) L_2)))
 (let ((?x1900 (+ L_0 ?x113)))
 (let (($x4231 (<= 0.0 ?x1900)))
 (let (($x3666 (not $x4231)))
 (let (($x11172 (<= (+ ?x132 A_1 (* (- 1.0) S_4) ?x1549) 0.0)))
 (let (($x20092 (or (not (<= (+ ?x1549 L_3 (* (- 1.0) A_3) ?x132 A_1) 0.0)) $x11172 (not (<= 0.0 (+ C L_0 (* (- 1.0) A_1) S_0))) $x12966)))
 (let (($x10367 (<= L_1 L_0)))
 (let (($x15597 (or $x10367 (<= (+ L_1 (* (- 1.0) A_1) S_3 (* (- 2.0) C)) (- 5.0)))))
 (let ((?x2998 (* (- 1.0) A_3)))
 (let ((?x4368 (* 3.0 C)))
 (let ((?x10879 (+ ?x4368 L_3 ?x2998 S_0)))
 (let (($x13005 (<= 0.0 ?x10879)))
 (let (($x12703 (>= S_4 (+ A_2 (* (- 1.0) L_1) C))))
 (let (($x11180 (<= (+ ?x4368 (* (- 1.0) S_4) S_0) 0.0)))
 (let (($x20361 (or $x10367 (<= (+ L_1 (* (- 1.0) A_1) S_4 (* (- 3.0) C)) (- 5.0)))))
 (let (($x20636 (or $x10367 (<= (+ L_1 (* (- 1.0) A_1) S_2 (* (- 1.0) C)) (- 5.0)))))
 (let (($x4232 (= L_1 L_2)))
 (let (($x4074 (<= (+ (* (- 1.0) C) ?x1596 A_3) 0.0)))
 (let (($x9886 (not $x4074)))
 (let (($x20464 (or $x4078 $x9886 (not (<= 0.0 (+ ?x4368 L_2 ?x2998 S_0))) (not (<= 0.0 (+ ?x1549 L_2 ?x2998 A_1 ?x132))))))
 (let (($x13089 (>= (+ (* (- 1.0) C) L_1 ?x1596 A_3 (* (- 1.0) L_3)) 5.0)))
 (let (($x12686 (not $x13089)))
 (let (($x12846 (<= 0.0 (+ C L_1 (* (- 1.0) A_1) S_0))))
 (let (($x10306 (not $x12846)))
 (let (($x10399 (not $x4232)))
 (let ((?x897 (+ ?x132 ?x2998 C A_2 L_3)))
 (let (($x10156 (<= ?x897 (- 5.0))))
 (let (($x10219 (or (<= 0.0 (+ (* (- 1.0) L_3) L_1)) $x10156 (<= (+ ?x1549 L_3 ?x2998 A_1 ?x132) (- 5.0)) $x10399 (not (<= 0.0 (+ L_0 (* (- 1.0) L_1)))) (<= ?x10879 (- 5.0)))))
 (let (($x11794 (<= 0.0 (+ (* (- 1.0) L_3) L_2))))
 (let (($x3247 (<= 0.0 (+ ?x113 L_1))))
 (let (($x3229 (not $x3247)))
 (let (($x12224 (or $x3229 $x10367 (<= (+ (* (- 1.0) A_1) (* (- 1.0) C) A_2) 0.0))))
 (let (($x10592 (not (<= 0.0 (+ ?x113 L_0)))))
 (let (($x10181 (<= (+ ?x1549 L_3 ?x2998 ?x132 A_1) 0.0)))
 (let (($x20916 (or $x10181 $x10592 $x11794 (>= S_2 (+ (* (- 2.0) L_0) A_2 ?x2998 L_3 A_1 C)))))
 (let (($x20248 (or (>= S_1 (+ (* (- 2.0) L_0) A_2 ?x2998 L_3 A_1)) $x10181 $x10592 $x11794)))
 (let (($x12287 (>= S_0 (+ (* (- 2.0) L_0) A_2 ?x2998 L_3 A_1 (* (- 1.0) C)))))
 (let (($x10883 (= (+ (* (- 2.0) C) L_1 (* (- 1.0) L_3) (* (- 1.0) A_1) A_3) 0.0)))
 (let ((?x117 (* (- 1.0) L_1)))
 (let ((?x4160 (+ A_2 ?x117)))
 (let (($x10229 (>= S_3 ?x4160)))
 (let (($x20125 (or $x10367 (<= S_1 (+ (* (- 2.0) L_1) A_2 ?x2998 L_3 A_1 C)))))
 (let (($x20020 (or (>= S_2 (+ (* (- 2.0) L_1) A_2 ?x2998 L_3 A_1 C)) $x10367 $x10883 $x11794)))
 (let (($x20025 (or (>= S_1 (+ (* (- 2.0) L_1) A_2 ?x2998 L_3 A_1)) $x10367 $x10883 $x11794)))
 (let (($x20451 (or (<= (+ (* (- 2.0) L_1) A_2 ?x2998 L_3 A_1) (+ A_0 ?x132)) $x10367 $x10883 $x11794)))
 (let (($x12802 (>= S_0 (+ (* (- 2.0) L_1) A_2 ?x2998 L_3 A_1 (* (- 1.0) C)))))
 (let (($x12463 (<= (+ ?x1549 (* (- 1.0) S_4) S_1) 0.0)))
 (let ((?x10112 (+ C ?x1596 L_2 S_1)))
 (let (($x10154 (<= 0.0 ?x10112)))
 (let (($x13027 (<= (+ ?x1549 (* (- 1.0) S_3) S_0) 0.0)))
 (let (($x904 (<= (+ ?x132 (* (- 1.0) S_3) A_2) 0.0)))
 (let (($x10962 (or $x4232 $x11794 (= (+ (* (- 1.0) C) (* (- 1.0) L_3) A_3 ?x1596 L_2) 0.0))))
 (let (($x9795 (= (+ (* (- 1.0) C) A_2 ?x113 L_1 (* (- 1.0) A_1)) 0.0)))
 (let (($x9578 (<= (+ ?x132 C ?x1596 L_2 A_1) 0.0)))
 (let (($x96 (>= S_1 S_0)))
 (let (($x99 (>= S_2 S_1)))
 (let (($x102 (>= S_3 S_2)))
 (let (($x105 (>= S_4 S_3)))
 (let (($x107 (>= A_1 A_0)))
 (let (($x108 (>= A_2 A_1)))
 (let (($x109 (>= A_3 A_2)))
 (let (($x110 (>= A_4 A_3)))
 (and $x110 $x109 $x108 $x107 $x105 $x102 $x99 $x96 (or (<= ?x897 0.0) (<= 0.0 (+ L_0 (* (- 1.0) L_3))) $x3666) (or (= L_2 L_3) (<= (+ L_3 ?x2998 S_3) (- 5.0))) (or (<= (+ C (* (- 1.0) S_3) S_1) 0.0) $x10154) (<= (+ (* (- 1.0) A_1) L_0 S_1) 0.0) (or (= L_0 L_1) $x3247 $x9795) (or (not $x9578) (= L_0 L_1)) (or $x3247 $x9578 $x9795) (or (= L_2 L_3) (not $x11794)) (or (= L_0 L_2) $x3666) (or $x904 (not (= L_0 L_1)) $x10181 $x11794) (or (<= (+ C S_2 (* (- 1.0) S_4)) 0.0) $x11794) (or $x3229 $x4231 $x9719 $x13027) $x10962 (or $x10229 (not $x10154)) (or $x11794 (<= (+ C L_3 ?x2998 S_2) (- 5.0))) (or $x10306 (<= (+ A_1 (* (- 1.0) S_2) ?x132) 0.0)) (or $x4232 (<= ?x10112 (- 5.0))) (or $x12846 (<= (+ C (* (- 1.0) S_2) S_0) 0.0)) (or $x4078 $x10367 $x11180 (not (<= L_1 (+ A_2 ?x2998 L_3 C)))) (or $x904 $x10306 (<= (+ ?x132 A_1 (* (- 1.0) S_3) C) 0.0)) (or $x4232 (<= ?x12960 (- 5.0)) $x10306) (or $x4078 (<= (+ C S_2 (* (- 1.0) S_4)) 0.0)) (or $x4078 $x9886 $x12463) (or $x904 $x3666 $x12846 $x13027) (or $x12846 (not (<= ?x9653 (- 5.0))) $x13027) (or $x3229 $x4232) (or $x10154 $x12463 (<= 0.0 (+ ?x1549 L_3 ?x2998 S_1))) (or (not (= L_0 L_1)) $x10156 $x10181 $x11794) (or $x10367 $x10883 $x11794 $x13089) (or $x10367 $x10883 $x11794 $x12802) $x20451 (or $x10367 (<= L_1 (+ ?x2998 L_3 A_1 ?x1549))) $x20025 (<= S_2 ?x4160) $x20020 $x20125 (or $x4232 (<= (+ (* (- 1.0) C) ?x1596 L_2 S_3) (- 5.0))) (<= (+ L_2 ?x2998 S_3) 0.0) (<= (+ (* (- 1.0) C) L_2 ?x2998 S_4) 0.0) (or $x4232 (<= ?x9653 (- 5.0)) $x12846) (or $x4232 $x11180 $x12846 $x13005) (or $x10367 (<= (+ L_1 (* (- 1.0) A_1) S_1) (- 5.0))) (or (<= S_0 (+ (* (- 2.0) L_1) A_2 ?x2998 L_3 A_1)) $x10367) (or $x10367 $x10883 $x11794 $x12703) (or $x10036 $x10229 $x10367) (or $x10229 $x10367 $x10883 $x11794) (<= (+ (* (- 2.0) C) (* (- 1.0) S_2) S_3) 0.0) (or $x4074 $x4232 (not (= L_2 L_3))) (<= (+ (* (- 2.0) C) S_2 (* (- 1.0) A_0) L_0) 0.0) (<= (+ L_0 (* (- 1.0) A_1) S_2 (* (- 1.0) C)) 0.0) (or $x10181 $x10592 $x11794 $x12287) (or (<= (+ ?x132 A_2 ?x2998 L_3 A_1) A_0) $x10181 $x10592 $x11794) $x20248 (or (not $x10154) $x12686 $x12703) (or $x3666 $x10181 $x11794 $x12703) $x20916 $x12224 (<= (+ (* (- 3.0) C) (* (- 1.0) S_2) S_4) 0.0) (or $x11794 (<= (+ (* (- 1.0) C) L_3 ?x2998 S_4) (- 5.0))) (<= S_4 (+ A_2 ?x117 ?x1549)) (or $x4232 (<= (+ ?x1596 L_2 S_2) (- 5.0))) (<= (+ (* (- 4.0) C) S_4 (* (- 1.0) A_0) L_0) 0.0) (<= (+ (* (- 5.0) C) S_4 (* (- 1.0) S_0)) 0.0) (<= (+ (* (- 4.0) C) S_4 (* (- 1.0) S_1)) 0.0) (<= (+ L_0 (* (- 1.0) A_1) S_3 (* (- 2.0) C)) 0.0) (<= (+ (* (- 4.0) C) S_3 (* (- 1.0) S_0)) 0.0) (<= (+ (* (- 2.0) C) S_2 (* (- 1.0) S_1)) 0.0) (or $x3666 $x10156 $x11794 (<= (+ ?x1549 L_3 ?x2998 S_1) (- 5.0))) $x10219 (or $x3666 $x9960 $x11172 $x11180 $x13005) (or $x10306 $x12686 $x12703 $x13280) $x20464 (<= (+ L_0 (* (- 1.0) A_1) S_4 (* (- 3.0) C)) 0.0) (or $x10367 (<= (+ L_1 (* (- 1.0) A_1) C S_0) (- 5.0))) (or $x4232 (<= (+ (* (- 2.0) C) ?x1596 L_2 S_4) (- 5.0))) $x20636 (or $x4078 (not $x10154) $x12703) $x20361 (or $x4078 $x10036 $x10367 $x12703) (or $x10367 $x11180 $x12703 $x13005) $x15597 $x20092 (or $x3666 $x4078 $x9960 $x10036 $x13280) $x126 $x34 (<= (+ L_0 (* (- 1.0) A_0) S_0) 0.0) (<= (+ (* (- 1.0) A_4) S_4 L_3) 0.0) (<= (+ (* (- 3.0) C) S_3 (* (- 1.0) S_1)) 0.0) (<= (+ (* (- 3.0) C) S_3 (* (- 1.0) A_0) L_0) 0.0) (<= (+ L_0 (* (- 1.0) C) (* (- 1.0) A_0) S_1) 0.0) (<= (+ (* (- 2.0) C) S_1 (* (- 1.0) S_0)) 0.0) (<= (+ (* (- 3.0) C) S_2 (* (- 1.0) S_0)) 0.0) (<= (+ (* (- 1.0) C) ?x1596 L_2 S_3) 0.0) (<= (+ (* (- 2.0) C) (* (- 1.0) S_3) S_4) 0.0))))))))))))))))))))))))))))))))))))))))))))))))))))))))))))))))))))))))))))))
(check-sat)
