qe/outputs/qe/qe_queries_cbrdelay/T=5,eliminate=[I_0,I_1,I_2,I_3,I_4,L_4,B].smt2.z3
[And(A_4 >= A_3,
     A_3 >= A_2,
     A_2 >= A_1,
     A_1 >= A_0,
     S_4 >= S_3,
     S_3 >= S_2,
     S_2 >= S_1,
     S_1 >= S_0,
     Or(-1*L_0 + -1*A_3 + C + A_2 + L_3 <= 0,
        0 <= L_0 + -1*L_3,
        Not(0 <= L_0 + -1*L_2)),
     Or(L_2 == L_3, L_3 + -1*A_3 + S_3 <= -5),
     Or(C + -1*S_3 + S_1 <= 0, 0 <= C + -1*A_2 + L_2 + S_1),
     -1*A_1 + L_0 + S_1 <= 0,
     Or(L_0 == L_1,
        0 <= -1*L_2 + L_1,
        -1*C + A_2 + -1*L_2 + L_1 + -1*A_1 == 0),
     Or(Not(-1*L_0 + C + -1*A_2 + L_2 + A_1 <= 0),
        L_0 == L_1),
     Or(0 <= -1*L_2 + L_1,
        -1*L_0 + C + -1*A_2 + L_2 + A_1 <= 0,
        -1*C + A_2 + -1*L_2 + L_1 + -1*A_1 == 0),
     Or(L_2 == L_3, Not(0 <= -1*L_3 + L_2)),
     Or(L_0 == L_2, Not(0 <= L_0 + -1*L_2)),
     Or(-1*L_0 + -1*S_3 + A_2 <= 0,
        Not(L_0 == L_1),
        2*C + L_3 + -1*A_3 + -1*L_0 + A_1 <= 0,
        0 <= -1*L_3 + L_2),
     Or(C + S_2 + -1*S_4 <= 0, 0 <= -1*L_3 + L_2),
     Or(Not(0 <= -1*L_2 + L_1),
        0 <= L_0 + -1*L_2,
        0 <= 2*C + -1*A_2 + L_2 + S_0,
        2*C + -1*S_3 + S_0 <= 0),
     Or(L_1 == L_2,
        0 <= -1*L_3 + L_2,
        -1*C + -1*L_3 + A_3 + -1*A_2 + L_2 == 0),
     Or(S_3 >= A_2 + -1*L_1,
        Not(0 <= C + -1*A_2 + L_2 + S_1)),
     Or(0 <= -1*L_3 + L_2, C + L_3 + -1*A_3 + S_2 <= -5),
     Or(Not(0 <= C + L_1 + -1*A_1 + S_0),
        A_1 + -1*S_2 + -1*L_0 <= 0),
     Or(L_1 == L_2, C + -1*A_2 + L_2 + S_1 <= -5),
     Or(0 <= C + L_1 + -1*A_1 + S_0, C + -1*S_2 + S_0 <= 0),
     Or(-1*L_2 + A_3 + -1*S_4 <= 0,
        L_1 <= L_0,
        3*C + -1*S_4 + S_0 <= 0,
        Not(L_1 <= A_2 + -1*A_3 + L_3 + C)),
     Or(-1*L_0 + -1*S_3 + A_2 <= 0,
        Not(0 <= C + L_1 + -1*A_1 + S_0),
        -1*L_0 + A_1 + -1*S_3 + C <= 0),
     Or(L_1 == L_2,
        -1*L_0 + A_1 + C + -1*A_2 + L_2 <= -5,
        Not(0 <= C + L_1 + -1*A_1 + S_0)),
     Or(-1*L_2 + A_3 + -1*S_4 <= 0, C + S_2 + -1*S_4 <= 0),
     Or(-1*L_2 + A_3 + -1*S_4 <= 0,
        Not(-1*C + -1*A_2 + A_3 <= 0),
        2*C + -1*S_4 + S_1 <= 0),
     Or(-1*L_0 + -1*S_3 + A_2 <= 0,
        Not(0 <= L_0 + -1*L_2),
        0 <= C + L_1 + -1*A_1 + S_0,
        2*C + -1*S_3 + S_0 <= 0),
     Or(0 <= C + L_1 + -1*A_1 + S_0,
        Not(2*C + -1*A_2 + L_2 + S_0 <= -5),
        2*C + -1*S_3 + S_0 <= 0),
     Or(Not(0 <= -1*L_2 + L_1), L_1 == L_2),
     Or(0 <= C + -1*A_2 + L_2 + S_1,
        2*C + -1*S_4 + S_1 <= 0,
        0 <= 2*C + L_3 + -1*A_3 + S_1),
     Or(Not(L_0 == L_1),
        -1*L_0 + -1*A_3 + C + A_2 + L_3 <= -5,
        2*C + L_3 + -1*A_3 + -1*L_0 + A_1 <= 0,
        0 <= -1*L_3 + L_2),
     Or(L_1 <= L_0,
        -2*C + L_1 + -1*L_3 + -1*A_1 + A_3 == 0,
        0 <= -1*L_3 + L_2,
        -1*C + L_1 + -1*A_2 + A_3 + -1*L_3 >= 5),
     Or(L_1 <= L_0,
        -2*C + L_1 + -1*L_3 + -1*A_1 + A_3 == 0,
        0 <= -1*L_3 + L_2,
        S_0 >= -2*L_1 + A_2 + -1*A_3 + L_3 + A_1 + -1*C),
     Or(-2*L_1 + A_2 + -1*A_3 + L_3 + A_1 <= A_0 + -1*L_0,
        L_1 <= L_0,
        -2*C + L_1 + -1*L_3 + -1*A_1 + A_3 == 0,
        0 <= -1*L_3 + L_2),
     Or(L_1 <= L_0, L_1 <= -1*A_3 + L_3 + A_1 + 2*C),
     Or(S_1 >= -2*L_1 + A_2 + -1*A_3 + L_3 + A_1,
        L_1 <= L_0,
        -2*C + L_1 + -1*L_3 + -1*A_1 + A_3 == 0,
        0 <= -1*L_3 + L_2),
     S_2 <= A_2 + -1*L_1,
     Or(S_2 >= -2*L_1 + A_2 + -1*A_3 + L_3 + A_1 + C,
        L_1 <= L_0,
        -2*C + L_1 + -1*L_3 + -1*A_1 + A_3 == 0,
        0 <= -1*L_3 + L_2),
     Or(L_1 <= L_0,
        S_1 <= -2*L_1 + A_2 + -1*A_3 + L_3 + A_1 + C),
     Or(L_1 == L_2, -1*C + -1*A_2 + L_2 + S_3 <= -5),
     L_2 + -1*A_3 + S_3 <= 0,
     -1*C + L_2 + -1*A_3 + S_4 <= 0,
     Or(L_1 == L_2,
        2*C + -1*A_2 + L_2 + S_0 <= -5,
        0 <= C + L_1 + -1*A_1 + S_0),
     Or(L_1 == L_2,
        3*C + -1*S_4 + S_0 <= 0,
        0 <= C + L_1 + -1*A_1 + S_0,
        0 <= 3*C + L_3 + -1*A_3 + S_0),
     Or(L_1 <= L_0, L_1 + -1*A_1 + S_1 <= -5),
     Or(S_0 <= -2*L_1 + A_2 + -1*A_3 + L_3 + A_1,
        L_1 <= L_0),
     Or(L_1 <= L_0,
        -2*C + L_1 + -1*L_3 + -1*A_1 + A_3 == 0,
        0 <= -1*L_3 + L_2,
        S_4 >= A_2 + -1*L_1 + C),
     Or(Not(0 <= 2*C + -1*A_2 + L_2 + S_0),
        S_3 >= A_2 + -1*L_1,
        L_1 <= L_0),
     Or(S_3 >= A_2 + -1*L_1,
        L_1 <= L_0,
        -2*C + L_1 + -1*L_3 + -1*A_1 + A_3 == 0,
        0 <= -1*L_3 + L_2),
     -2*C + -1*S_2 + S_3 <= 0,
     Or(-1*C + -1*A_2 + A_3 <= 0,
        L_1 == L_2,
        Not(L_2 == L_3)),
     -2*C + S_2 + -1*A_0 + L_0 <= 0,
     L_0 + -1*A_1 + S_2 + -1*C <= 0,
     Or(2*C + L_3 + -1*A_3 + -1*L_0 + A_1 <= 0,
        Not(0 <= -1*L_2 + L_0),
        0 <= -1*L_3 + L_2,
        S_0 >= -2*L_0 + A_2 + -1*A_3 + L_3 + A_1 + -1*C),
     Or(-1*L_0 + A_2 + -1*A_3 + L_3 + A_1 <= A_0,
        2*C + L_3 + -1*A_3 + -1*L_0 + A_1 <= 0,
        Not(0 <= -1*L_2 + L_0),
        0 <= -1*L_3 + L_2),
     Or(S_1 >= -2*L_0 + A_2 + -1*A_3 + L_3 + A_1,
        2*C + L_3 + -1*A_3 + -1*L_0 + A_1 <= 0,
        Not(0 <= -1*L_2 + L_0),
        0 <= -1*L_3 + L_2),
     Or(Not(0 <= C + -1*A_2 + L_2 + S_1),
        Not(-1*C + L_1 + -1*A_2 + A_3 + -1*L_3 >= 5),
        S_4 >= A_2 + -1*L_1 + C),
     Or(Not(0 <= L_0 + -1*L_2),
        2*C + L_3 + -1*A_3 + -1*L_0 + A_1 <= 0,
        0 <= -1*L_3 + L_2,
        S_4 >= A_2 + -1*L_1 + C),
     Or(2*C + L_3 + -1*A_3 + -1*L_0 + A_1 <= 0,
        Not(0 <= -1*L_2 + L_0),
        0 <= -1*L_3 + L_2,
        S_2 >= -2*L_0 + A_2 + -1*A_3 + L_3 + A_1 + C),
     Or(Not(0 <= -1*L_2 + L_1),
        L_1 <= L_0,
        -1*A_1 + -1*C + A_2 <= 0),
     -3*C + -1*S_2 + S_4 <= 0,
     Or(0 <= -1*L_3 + L_2, -1*C + L_3 + -1*A_3 + S_4 <= -5),
     S_4 <= A_2 + -1*L_1 + 2*C,
     Or(L_1 == L_2, -1*A_2 + L_2 + S_2 <= -5),
     -4*C + S_4 + -1*A_0 + L_0 <= 0,
     -5*C + S_4 + -1*S_0 <= 0,
     -4*C + S_4 + -1*S_1 <= 0,
     L_0 + -1*A_1 + S_3 + -2*C <= 0,
     -4*C + S_3 + -1*S_0 <= 0,
     -2*C + S_2 + -1*S_1 <= 0,
     Or(Not(0 <= L_0 + -1*L_2),
        -1*L_0 + -1*A_3 + C + A_2 + L_3 <= -5,
        0 <= -1*L_3 + L_2,
        2*C + L_3 + -1*A_3 + S_1 <= -5),
     Or(0 <= -1*L_3 + L_1,
        -1*L_0 + -1*A_3 + C + A_2 + L_3 <= -5,
        2*C + L_3 + -1*A_3 + A_1 + -1*L_0 <= -5,
        Not(L_1 == L_2),
        Not(0 <= L_0 + -1*L_1),
        3*C + L_3 + -1*A_3 + S_0 <= -5),
     Or(Not(0 <= L_0 + -1*L_2),
        -1*L_0 + -1*S_4 + C + A_2 <= 0,
        -1*L_0 + A_1 + -1*S_4 + 2*C <= 0,
        3*C + -1*S_4 + S_0 <= 0,
        0 <= 3*C + L_3 + -1*A_3 + S_0),
     Or(Not(0 <= C + L_1 + -1*A_1 + S_0),
        Not(-1*C + L_1 + -1*A_2 + A_3 + -1*L_3 >= 5),
        S_4 >= A_2 + -1*L_1 + C,
        Not(0 <= -1*L_0 + A_1 + C + -1*A_2 + L_2)),
     Or(-1*L_2 + A_3 + -1*S_4 <= 0,
        Not(-1*C + -1*A_2 + A_3 <= 0),
        Not(0 <= 3*C + L_2 + -1*A_3 + S_0),
        Not(0 <= 2*C + L_2 + -1*A_3 + A_1 + -1*L_0)),
     L_0 + -1*A_1 + S_4 + -3*C <= 0,
     Or(L_1 <= L_0, L_1 + -1*A_1 + C + S_0 <= -5),
     Or(L_1 == L_2, -2*C + -1*A_2 + L_2 + S_4 <= -5),
     Or(L_1 <= L_0, L_1 + -1*A_1 + S_2 + -1*C <= -5),
     Or(-1*L_2 + A_3 + -1*S_4 <= 0,
        Not(0 <= C + -1*A_2 + L_2 + S_1),
        S_4 >= A_2 + -1*L_1 + C),
     Or(L_1 <= L_0, L_1 + -1*A_1 + S_4 + -3*C <= -5),
     Or(-1*L_2 + A_3 + -1*S_4 <= 0,
        Not(0 <= 2*C + -1*A_2 + L_2 + S_0),
        L_1 <= L_0,
        S_4 >= A_2 + -1*L_1 + C),
     Or(L_1 <= L_0,
        3*C + -1*S_4 + S_0 <= 0,
        S_4 >= A_2 + -1*L_1 + C,
...